c Generated map
c Size: 9 * 9, weights in range: 1 to 10, walls: True, with ratio 0.1
c dim 3 of 7
c
p sp 81 117
c graph contains 81 nodes and 117 arcs
c
a 1 2 1
a 2 1 1
a 2 3 7
a 3 2 7
a 3 12 10
a 12 3 10
a 3 4 5
a 4 3 5
a 4 13 10
a 13 4 10
a 6 7 3
a 7 6 3
a 7 16 5
a 16 7 5
a 7 8 10
a 8 7 10
a 8 17 5
a 17 8 5
a 8 9 5
a 9 8 5
a 9 18 4
a 18 9 4
a 12 21 7
a 21 12 7
a 12 13 3
a 13 12 3
a 13 22 4
a 22 13 4
a 13 14 10
a 14 13 10
a 14 23 6
a 23 14 6
a 16 25 3
a 25 16 3
a 16 17 1
a 17 16 1
a 17 26 1
a 26 17 1
a 17 18 3
a 18 17 3
a 19 28 7
a 28 19 7
a 19 20 2
a 20 19 2
a 20 29 2
a 29 20 2
a 20 21 3
a 21 20 3
a 21 30 4
a 30 21 4
a 21 22 5
a 22 21 5
a 22 31 10
a 31 22 10
a 22 23 10
a 23 22 10
a 23 32 4
a 32 23 4
a 23 24 7
a 24 23 7
a 24 33 8
a 33 24 8
a 24 25 9
a 25 24 9
a 25 34 7
a 34 25 7
a 25 26 6
a 26 25 6
a 26 35 7
a 35 26 7
a 28 37 7
a 37 28 7
a 28 29 4
a 29 28 4
a 29 38 1
a 38 29 1
a 29 30 10
a 30 29 10
a 30 39 7
a 39 30 7
a 30 31 3
a 31 30 3
a 31 40 4
a 40 31 4
a 31 32 8
a 32 31 8
a 32 41 4
a 41 32 4
a 32 33 1
a 33 32 1
a 33 42 2
a 42 33 2
a 33 34 8
a 34 33 8
a 34 43 10
a 43 34 10
a 34 35 10
a 35 34 10
a 35 44 2
a 44 35 2
a 35 36 3
a 36 35 3
a 36 45 5
a 45 36 5
a 37 46 7
a 46 37 7
a 37 38 8
a 38 37 8
a 38 47 7
a 47 38 7
a 38 39 9
a 39 38 9
a 39 48 3
a 48 39 3
a 39 40 7
a 40 39 7
a 40 49 10
a 49 40 10
a 40 41 1
a 41 40 1
a 41 50 3
a 50 41 3
a 41 42 5
a 42 41 5
a 42 51 7
a 51 42 7
a 42 43 8
a 43 42 8
a 43 52 10
a 52 43 10
a 43 44 7
a 44 43 7
a 44 53 8
a 53 44 8
a 44 45 7
a 45 44 7
a 46 55 7
a 55 46 7
a 46 47 5
a 47 46 5
a 47 56 7
a 56 47 7
a 47 48 3
a 48 47 3
a 48 57 1
a 57 48 1
a 48 49 3
a 49 48 3
a 49 58 4
a 58 49 4
a 49 50 8
a 50 49 8
a 50 59 2
a 59 50 2
a 50 51 9
a 51 50 9
a 51 52 10
a 52 51 10
a 52 61 6
a 61 52 6
a 52 53 5
a 53 52 5
a 53 62 8
a 62 53 8
a 55 64 9
a 64 55 9
a 55 56 3
a 56 55 3
a 56 65 4
a 65 56 4
a 56 57 8
a 57 56 8
a 57 66 3
a 66 57 3
a 57 58 1
a 58 57 1
a 58 67 2
a 67 58 2
a 58 59 2
a 59 58 2
a 59 68 10
a 68 59 10
a 61 62 9
a 62 61 9
a 62 71 2
a 71 62 2
a 62 63 3
a 63 62 3
a 63 72 4
a 72 63 4
a 64 73 2
a 73 64 2
a 64 65 10
a 65 64 10
a 65 74 3
a 74 65 3
a 65 66 2
a 66 65 2
a 66 75 6
a 75 66 6
a 66 67 2
a 67 66 2
a 67 76 2
a 76 67 2
a 67 68 1
a 68 67 1
a 68 77 1
a 77 68 1
a 68 69 2
a 69 68 2
a 69 78 3
a 78 69 3
a 71 80 3
a 80 71 3
a 71 72 2
a 72 71 2
a 72 81 10
a 81 72 10
a 73 74 6
a 74 73 6
a 74 75 10
a 75 74 10
a 75 76 6
a 76 75 6
a 76 77 3
a 77 76 3
a 77 78 2
a 78 77 2
a 78 79 3
a 79 78 3
a 79 80 10
a 80 79 10
a 80 81 2
a 81 80 2
